#************************************************************************************
#*                  Generated by cif2cell 1.2.10 2019-07-05 13:43                   *
#*  T. Bjorkman, Comp. Phys. Commun. 182, 1183-1186 (2011). Please cite generously. *
#*                                                                                  *
#*                Data obtained from ICSD. Reference number : 260169                *
#*                                  Ni   (Nickel)                                   *
#*          Rouquette, J. et al., Inorganic Chemistry 47, 9898-9904 (2008)          *
#************************************************************************************

%BLOCK LATTICE_CART
ang    # angstrom units
   1.763800000000000   1.763800000000000   0.000000000000000
   1.763800000000000   0.000000000000000   1.763800000000000
   0.000000000000000   1.763800000000000   1.763800000000000
%ENDBLOCK LATTICE_CART

%BLOCK POSITIONS_FRAC
Ni   0.000000000000000   0.000000000000000   0.000000000000000 
%ENDBLOCK POSITIONS_FRAC

kpoint_mp_spacing 0.014
# Commented out pseudopotential block for easy editing
#%BLOCK SPECIES_POT
# Ni  Ni_00.usp
#%ENDBLOCK SPECIES_POT

%BLOCK SYMMETRY_OPS
# Symm. op. 1
  1.000000000000000   0.000000000000000   0.000000000000000 
  0.000000000000000   1.000000000000000   0.000000000000000 
  0.000000000000000   0.000000000000000   1.000000000000000 
  0.000000000000000   0.000000000000000   0.000000000000000 
# Symm. op. 2
 -1.000000000000000   0.000000000000000   0.000000000000000 
  0.000000000000000   1.000000000000000   0.000000000000000 
  0.000000000000000   0.000000000000000   1.000000000000000 
  0.000000000000000   0.000000000000000   0.000000000000000 
# Symm. op. 3
  1.000000000000000   0.000000000000000   0.000000000000000 
  0.000000000000000  -1.000000000000000   0.000000000000000 
  0.000000000000000   0.000000000000000  -1.000000000000000 
  0.000000000000000   0.000000000000000   0.000000000000000 
# Symm. op. 4
 -1.000000000000000   0.000000000000000   0.000000000000000 
  0.000000000000000  -1.000000000000000   0.000000000000000 
  0.000000000000000   0.000000000000000   1.000000000000000 
  0.000000000000000   0.000000000000000   0.000000000000000 
# Symm. op. 5
  1.000000000000000   0.000000000000000   0.000000000000000 
  0.000000000000000  -1.000000000000000   0.000000000000000 
  0.000000000000000   0.000000000000000   1.000000000000000 
  0.000000000000000   0.000000000000000   0.000000000000000 
# Symm. op. 6
  1.000000000000000   0.000000000000000   0.000000000000000 
  0.000000000000000   1.000000000000000   0.000000000000000 
  0.000000000000000   0.000000000000000  -1.000000000000000 
  0.000000000000000   0.000000000000000   0.000000000000000 
# Symm. op. 7
 -1.000000000000000   0.000000000000000   0.000000000000000 
  0.000000000000000  -1.000000000000000   0.000000000000000 
  0.000000000000000   0.000000000000000  -1.000000000000000 
  0.000000000000000   0.000000000000000   0.000000000000000 
# Symm. op. 8
 -1.000000000000000   0.000000000000000   0.000000000000000 
  0.000000000000000   1.000000000000000   0.000000000000000 
  0.000000000000000   0.000000000000000  -1.000000000000000 
  0.000000000000000   0.000000000000000   0.000000000000000 
# Symm. op. 9
  1.000000000000000   0.000000000000000   0.000000000000000 
  0.000000000000000   0.000000000000000   1.000000000000000 
  0.000000000000000   1.000000000000000   0.000000000000000 
  0.000000000000000   0.000000000000000   0.000000000000000 
# Symm. op. 10
 -1.000000000000000   0.000000000000000   0.000000000000000 
  0.000000000000000   0.000000000000000   1.000000000000000 
  0.000000000000000   1.000000000000000   0.000000000000000 
  0.000000000000000   0.000000000000000   0.000000000000000 
# Symm. op. 11
  0.000000000000000   1.000000000000000   0.000000000000000 
  0.000000000000000   0.000000000000000   1.000000000000000 
 -1.000000000000000   0.000000000000000   0.000000000000000 
  0.000000000000000   0.000000000000000   0.000000000000000 
# Symm. op. 12
  1.000000000000000   0.000000000000000   0.000000000000000 
  0.000000000000000   0.000000000000000   1.000000000000000 
  0.000000000000000  -1.000000000000000   0.000000000000000 
  0.000000000000000   0.000000000000000   0.000000000000000 
# Symm. op. 13
  0.000000000000000   1.000000000000000   0.000000000000000 
 -1.000000000000000   0.000000000000000   0.000000000000000 
  0.000000000000000   0.000000000000000  -1.000000000000000 
  0.000000000000000   0.000000000000000   0.000000000000000 
# Symm. op. 14
  0.000000000000000  -1.000000000000000   0.000000000000000 
  0.000000000000000   0.000000000000000  -1.000000000000000 
 -1.000000000000000   0.000000000000000   0.000000000000000 
  0.000000000000000   0.000000000000000   0.000000000000000 
# Symm. op. 15
  0.000000000000000   0.000000000000000   1.000000000000000 
  0.000000000000000  -1.000000000000000   0.000000000000000 
  1.000000000000000   0.000000000000000   0.000000000000000 
  0.000000000000000   0.000000000000000   0.000000000000000 
# Symm. op. 16
  0.000000000000000  -1.000000000000000   0.000000000000000 
 -1.000000000000000   0.000000000000000   0.000000000000000 
  0.000000000000000   0.000000000000000   1.000000000000000 
  0.000000000000000   0.000000000000000   0.000000000000000 
# Symm. op. 17
  0.000000000000000   1.000000000000000   0.000000000000000 
  1.000000000000000   0.000000000000000   0.000000000000000 
  0.000000000000000   0.000000000000000   1.000000000000000 
  0.000000000000000   0.000000000000000   0.000000000000000 
# Symm. op. 18
  0.000000000000000   0.000000000000000   1.000000000000000 
  1.000000000000000   0.000000000000000   0.000000000000000 
  0.000000000000000   1.000000000000000   0.000000000000000 
  0.000000000000000   0.000000000000000   0.000000000000000 
# Symm. op. 19
  0.000000000000000   1.000000000000000   0.000000000000000 
  1.000000000000000   0.000000000000000   0.000000000000000 
  0.000000000000000   0.000000000000000  -1.000000000000000 
  0.000000000000000   0.000000000000000   0.000000000000000 
# Symm. op. 20
  0.000000000000000   0.000000000000000  -1.000000000000000 
  1.000000000000000   0.000000000000000   0.000000000000000 
  0.000000000000000  -1.000000000000000   0.000000000000000 
  0.000000000000000   0.000000000000000   0.000000000000000 
# Symm. op. 21
  0.000000000000000   1.000000000000000   0.000000000000000 
  0.000000000000000   0.000000000000000   1.000000000000000 
  1.000000000000000   0.000000000000000   0.000000000000000 
  0.000000000000000   0.000000000000000   0.000000000000000 
# Symm. op. 22
  0.000000000000000   0.000000000000000  -1.000000000000000 
  0.000000000000000   1.000000000000000   0.000000000000000 
 -1.000000000000000   0.000000000000000   0.000000000000000 
  0.000000000000000   0.000000000000000   0.000000000000000 
# Symm. op. 23
  0.000000000000000   1.000000000000000   0.000000000000000 
  0.000000000000000   0.000000000000000  -1.000000000000000 
 -1.000000000000000   0.000000000000000   0.000000000000000 
  0.000000000000000   0.000000000000000   0.000000000000000 
# Symm. op. 24
  0.000000000000000   0.000000000000000   1.000000000000000 
  0.000000000000000   1.000000000000000   0.000000000000000 
 -1.000000000000000   0.000000000000000   0.000000000000000 
  0.000000000000000   0.000000000000000   0.000000000000000 
# Symm. op. 25
  0.000000000000000  -1.000000000000000   0.000000000000000 
  0.000000000000000   0.000000000000000   1.000000000000000 
  1.000000000000000   0.000000000000000   0.000000000000000 
  0.000000000000000   0.000000000000000   0.000000000000000 
# Symm. op. 26
  0.000000000000000   0.000000000000000  -1.000000000000000 
  0.000000000000000  -1.000000000000000   0.000000000000000 
 -1.000000000000000   0.000000000000000   0.000000000000000 
  0.000000000000000   0.000000000000000   0.000000000000000 
# Symm. op. 27
  0.000000000000000   1.000000000000000   0.000000000000000 
 -1.000000000000000   0.000000000000000   0.000000000000000 
  0.000000000000000   0.000000000000000   1.000000000000000 
  0.000000000000000   0.000000000000000   0.000000000000000 
# Symm. op. 28
  0.000000000000000   0.000000000000000   1.000000000000000 
 -1.000000000000000   0.000000000000000   0.000000000000000 
  0.000000000000000  -1.000000000000000   0.000000000000000 
  0.000000000000000   0.000000000000000   0.000000000000000 
# Symm. op. 29
  0.000000000000000   0.000000000000000  -1.000000000000000 
 -1.000000000000000   0.000000000000000   0.000000000000000 
  0.000000000000000  -1.000000000000000   0.000000000000000 
  0.000000000000000   0.000000000000000   0.000000000000000 
# Symm. op. 30
  0.000000000000000   0.000000000000000  -1.000000000000000 
  0.000000000000000   1.000000000000000   0.000000000000000 
  1.000000000000000   0.000000000000000   0.000000000000000 
  0.000000000000000   0.000000000000000   0.000000000000000 
# Symm. op. 31
 -1.000000000000000   0.000000000000000   0.000000000000000 
  0.000000000000000   0.000000000000000  -1.000000000000000 
  0.000000000000000   1.000000000000000   0.000000000000000 
  0.000000000000000   0.000000000000000   0.000000000000000 
# Symm. op. 32
  0.000000000000000   0.000000000000000   1.000000000000000 
  0.000000000000000   1.000000000000000   0.000000000000000 
  1.000000000000000   0.000000000000000   0.000000000000000 
  0.000000000000000   0.000000000000000   0.000000000000000 
# Symm. op. 33
  1.000000000000000   0.000000000000000   0.000000000000000 
  0.000000000000000   0.000000000000000  -1.000000000000000 
  0.000000000000000   1.000000000000000   0.000000000000000 
  0.000000000000000   0.000000000000000   0.000000000000000 
# Symm. op. 34
  1.000000000000000   0.000000000000000   0.000000000000000 
  0.000000000000000   0.000000000000000  -1.000000000000000 
  0.000000000000000  -1.000000000000000   0.000000000000000 
  0.000000000000000   0.000000000000000   0.000000000000000 
# Symm. op. 35
  0.000000000000000   0.000000000000000   1.000000000000000 
 -1.000000000000000   0.000000000000000   0.000000000000000 
  0.000000000000000   1.000000000000000   0.000000000000000 
  0.000000000000000   0.000000000000000   0.000000000000000 
# Symm. op. 36
  0.000000000000000   0.000000000000000   1.000000000000000 
  0.000000000000000  -1.000000000000000   0.000000000000000 
 -1.000000000000000   0.000000000000000   0.000000000000000 
  0.000000000000000   0.000000000000000   0.000000000000000 
# Symm. op. 37
  0.000000000000000   0.000000000000000  -1.000000000000000 
  0.000000000000000  -1.000000000000000   0.000000000000000 
  1.000000000000000   0.000000000000000   0.000000000000000 
  0.000000000000000   0.000000000000000   0.000000000000000 
# Symm. op. 38
  0.000000000000000  -1.000000000000000   0.000000000000000 
  0.000000000000000   0.000000000000000  -1.000000000000000 
  1.000000000000000   0.000000000000000   0.000000000000000 
  0.000000000000000   0.000000000000000   0.000000000000000 
# Symm. op. 39
  0.000000000000000   1.000000000000000   0.000000000000000 
  0.000000000000000   0.000000000000000  -1.000000000000000 
  1.000000000000000   0.000000000000000   0.000000000000000 
  0.000000000000000   0.000000000000000   0.000000000000000 
# Symm. op. 40
  0.000000000000000  -1.000000000000000   0.000000000000000 
  0.000000000000000   0.000000000000000   1.000000000000000 
 -1.000000000000000   0.000000000000000   0.000000000000000 
  0.000000000000000   0.000000000000000   0.000000000000000 
# Symm. op. 41
 -1.000000000000000   0.000000000000000   0.000000000000000 
  0.000000000000000   0.000000000000000   1.000000000000000 
  0.000000000000000  -1.000000000000000   0.000000000000000 
  0.000000000000000   0.000000000000000   0.000000000000000 
# Symm. op. 42
  0.000000000000000   0.000000000000000   1.000000000000000 
  1.000000000000000   0.000000000000000   0.000000000000000 
  0.000000000000000  -1.000000000000000   0.000000000000000 
  0.000000000000000   0.000000000000000   0.000000000000000 
# Symm. op. 43
  0.000000000000000  -1.000000000000000   0.000000000000000 
 -1.000000000000000   0.000000000000000   0.000000000000000 
  0.000000000000000   0.000000000000000  -1.000000000000000 
  0.000000000000000   0.000000000000000   0.000000000000000 
# Symm. op. 44
 -1.000000000000000   0.000000000000000   0.000000000000000 
  0.000000000000000   0.000000000000000  -1.000000000000000 
  0.000000000000000  -1.000000000000000   0.000000000000000 
  0.000000000000000   0.000000000000000   0.000000000000000 
# Symm. op. 45
  0.000000000000000   0.000000000000000  -1.000000000000000 
  1.000000000000000   0.000000000000000   0.000000000000000 
  0.000000000000000   1.000000000000000   0.000000000000000 
  0.000000000000000   0.000000000000000   0.000000000000000 
# Symm. op. 46
  0.000000000000000  -1.000000000000000   0.000000000000000 
  1.000000000000000   0.000000000000000   0.000000000000000 
  0.000000000000000   0.000000000000000   1.000000000000000 
  0.000000000000000   0.000000000000000   0.000000000000000 
# Symm. op. 47
  0.000000000000000   0.000000000000000  -1.000000000000000 
 -1.000000000000000   0.000000000000000   0.000000000000000 
  0.000000000000000   1.000000000000000   0.000000000000000 
  0.000000000000000   0.000000000000000   0.000000000000000 
# Symm. op. 48
  0.000000000000000  -1.000000000000000   0.000000000000000 
  1.000000000000000   0.000000000000000   0.000000000000000 
  0.000000000000000   0.000000000000000  -1.000000000000000 
  0.000000000000000   0.000000000000000   0.000000000000000 
%ENDBLOCK SYMMETRY_OPS
